n = 103;
k = 2750;
price = [20, 24, 15, 17, 16, 16, 22, 15, 25, 23, 19, 21, 23, 25, 15, 21, 19, 15, 22, 21, 23, 18, 23, 20, 20, 17, 19, 20, 18, 16, 18, 23, 20, 21, 17, 22, 16, 22, 18, 20, 15, 24, 22, 16, 20, 17, 23, 20, 20, 23, 23, 21, 18, 16, 16, 23, 21, 24, 21, 22, 19, 22, 16, 19, 15, 15, 18, 19, 22, 16, 16, 15, 19, 19, 20, 24, 23, 22, 21, 23, 22, 18, 25, 21, 22, 24, 24, 17, 20, 15, 16, 24, 25, 24, 23, 19, 21, 23, 22, 20, 23, 25, 19];
m = 0;
buy = [];
free = [];
